p cnf 127 303
1 0
11 -12 0
-11 12 0
13 -14 0
-13 14 0
10 -11 0
10 -13 0
-10 11 13 0
16 12 0
-16 -12 0
17 -14 0
-17 14 0
15 -16 0
15 -17 0
-15 16 17 0
-9 10 0
-9 15 0
9 -10 -15 0
20 -21 0
-20 21 0
22 -23 0
-22 23 0
19 -20 0
19 -22 0
-19 20 22 0
25 21 0
-25 -21 0
26 -23 0
-26 23 0
24 -25 0
24 -26 0
-24 25 26 0
-18 19 0
-18 24 0
18 -19 -24 0
8 -9 0
8 -18 0
-8 9 18 0
29 -30 0
-29 30 0
31 -32 0
-31 32 0
28 -29 0
28 -31 0
-28 29 31 0
34 30 0
-34 -30 0
35 -32 0
-35 32 0
33 -34 0
33 -35 0
-33 34 35 0
-27 28 0
-27 33 0
27 -28 -33 0
7 -8 0
7 -27 0
-7 8 27 0
-36 7 0
36 -7 0
-6 7 0
-6 36 0
6 -7 -36 0
-37 7 0
37 -7 0
-5 6 0
-5 37 0
5 -6 -37 0
42 -30 0
-42 30 0
43 32 0
-43 -32 0
-41 42 0
-41 43 0
41 -42 -43 0
45 -12 0
-45 12 0
46 14 0
-46 -14 0
-44 45 0
-44 46 0
44 -45 -46 0
-40 41 0
-40 44 0
40 -41 -44 0
49 30 0
-49 -30 0
50 -32 0
-50 32 0
-48 49 0
-48 50 0
48 -49 -50 0
-51 44 0
51 -44 0
-47 48 0
-47 51 0
47 -48 -51 0
39 -40 0
39 -47 0
-39 40 47 0
54 30 0
-54 -30 0
55 32 0
-55 -32 0
-53 54 0
-53 55 0
53 -54 -55 0
57 12 0
-57 -12 0
58 -14 0
-58 14 0
-56 57 0
-56 58 0
56 -57 -58 0
-52 53 0
-52 56 0
52 -53 -56 0
38 -39 0
38 -52 0
-38 39 52 0
-4 5 0
-4 38 0
4 -5 -38 0
-62 7 0
62 -7 0
-64 18 0
64 -18 0
-65 27 0
65 -27 0
63 -64 0
63 -65 0
-63 64 65 0
-61 62 0
-61 63 0
61 -62 -63 0
-66 63 0
66 -63 0
-60 61 0
-60 66 0
60 -61 -66 0
-70 41 0
70 -41 0
72 -21 0
-72 21 0
73 23 0
-73 -23 0
-71 72 0
-71 73 0
71 -72 -73 0
-69 70 0
-69 71 0
69 -70 -71 0
-75 48 0
75 -48 0
-76 71 0
76 -71 0
-74 75 0
-74 76 0
74 -75 -76 0
68 -69 0
68 -74 0
-68 69 74 0
-78 53 0
78 -53 0
80 21 0
-80 -21 0
81 -23 0
-81 23 0
-79 80 0
-79 81 0
79 -80 -81 0
-77 78 0
-77 79 0
77 -78 -79 0
67 -68 0
67 -77 0
-67 68 77 0
-59 60 0
-59 67 0
59 -60 -67 0
3 -4 0
3 -59 0
-3 4 59 0
-84 61 0
84 -61 0
-85 27 0
85 -27 0
-83 84 0
-83 85 0
83 -84 -85 0
-89 41 0
89 -41 0
-90 41 0
90 -41 0
-88 89 0
-88 90 0
88 -89 -90 0
-92 48 0
92 -48 0
-93 41 0
93 -41 0
-91 92 0
-91 93 0
91 -92 -93 0
87 -88 0
87 -91 0
-87 88 91 0
-95 53 0
95 -53 0
-96 48 0
96 -48 0
-94 95 0
-94 96 0
94 -95 -96 0
86 -87 0
86 -94 0
-86 87 94 0
-82 83 0
-82 86 0
82 -83 -86 0
2 -3 0
2 -82 0
-2 3 82 0
-102 44 0
102 -44 0
-103 71 0
103 -71 0
-101 102 0
-101 103 0
101 -102 -103 0
-105 56 0
105 -56 0
-106 71 0
106 -71 0
-104 105 0
-104 106 0
104 -105 -106 0
100 -101 0
100 -104 0
-100 101 104 0
109 12 0
-109 -12 0
110 14 0
-110 -14 0
-108 109 0
-108 110 0
108 -109 -110 0
-111 79 0
111 -79 0
-107 108 0
-107 111 0
107 -108 -111 0
99 -100 0
99 -107 0
-99 100 107 0
-115 71 0
115 -71 0
-116 41 0
116 -41 0
-114 115 0
-114 116 0
114 -115 -116 0
-118 79 0
118 -79 0
-119 41 0
119 -41 0
-117 118 0
-117 119 0
117 -118 -119 0
113 -114 0
113 -117 0
-113 114 117 0
122 21 0
-122 -21 0
123 23 0
-123 -23 0
-121 122 0
-121 123 0
121 -122 -123 0
-124 48 0
124 -48 0
-120 121 0
-120 124 0
120 -121 -124 0
112 -113 0
112 -120 0
-112 113 120 0
-98 99 0
-98 112 0
98 -99 -112 0
-126 108 0
126 -108 0
-127 108 0
127 -108 0
125 -126 0
125 -127 0
-125 126 127 0
-97 98 0
-97 125 0
97 -98 -125 0
-1 2 0
-1 97 0
1 -2 -97 0
